43 60
5 7 1
6 10 1
6 5 1
2 7 2
8 4 3
10 9 2
5 8 3
6 8 1
9 4 1
3 9 2
10 3 2
5 9 1
7 1 1
9 8 4
6 4 2
6 3 1
3 4 2
2 10 2
1 6 2
4 1 2
4 7 1
2 4 1
5 2 1
7 4 1
8 10 2
10 10 1
8 2 1
8 9 1
9 7 1
2 3 1
4 10 1
1 3 1
5 1 1
2 1 1
2 2 1
7 6 1
4 4 1
4 2 1
5 10 1
7 8 1
1 5 1
4 3 1
4 9 1
10 10 
10 10 
10 10 
10 10 
10 10 
10 10 
10 10 
10 10 
10 10 
10 10 
10 10 
10 10 
10 10 
10 10 
10 10 
10 10 
10 10 
10 10 
10 10 
10 10 
10 10 
10 10 
10 10 
10 10 
10 10 
10 10 
10 10 
10 10 
10 10 
10 10 
10 10 
10 10 
10 10 
10 10 
10 10 
10 10 
10 10 
10 10 
10 10 
10 10 
10 10 
10 10 
10 10 
10 10 
10 10 
10 10 
10 10 
10 10 
10 10 
10 10 
10 10 
10 10 
10 10 
10 10 
10 10 
10 10 
10 10 
10 10 
10 10 
10 10 
